655434
230,45,212,104,224,129,146,103,187,12,88,228,109,90,186,171,150,170,142,4,21,217,153,33,38,203,6,68,9,166,101,184,161,205,34,75,215,78,28,151,87,55,62,102,130,81,40,169,27,112,155,133,229,162,72,135,83,157,74,39,207,43,31,178,163,127,147,67,49,71,140,118,32,63,1,7,210,36,94,35,108,50,37,192,179,196,107,116,89,96,91,22,20,183,117,26,144,145,211,156,5,137,15,138,3,60,16,189,185,208,159,23,69,226,177,152,122,51,199,98,42,160,113,73,209,218,206,136,181,188,85,167,79,95,84,193,195,119,86,70,126,114,191,10,201,14,110,120,8,97,165,194,220,30,64,44,223,176,17,47,225,13,48,111,134,19,227,125,46,214,164,154,65,200,198,29,174,57,76,143,197,11,139,58,213,204,172,168,93,59,221,52,123,124,173,131,148,182,61,25,80,132,149,115,2,82,158,180,121,77,222,41,128,106,141,219,24,66,190,99,202,105,216,100,53,92,175,54,18,56